\ Model firm
\ LP format - for model browsing. Use MPS format to capture full model detail.
Maximize
  19.71708978707594 output - 5 emission + [ - 1.163662760501029 output ^2
   + 1.927325521002059 output * emission - 0.9636627605010293 emission ^2
   ] / 2 
Subject To
 R0: - output + emission <= 0
Bounds
End
